722356
7,14,29,219,63,43,210,155,4,136,59,184,188,15,116,62,31,117,139,70,48,66,38,206,146,126,162,177,207,2,137,22,158,198,30,42,73,156,82,134,71,0,161,228,132,154,111,35,6,209,182,19,21,25,143,144,90,95,88,115,106,195,178,191,36,33,77,54,129,80,39,26,168,101,61,86,34,93,107,49,150,27,214,74,204,160,183,100,165,8,67,5,202,37,223,32,152,216,20,3,141,169,89,149,170,185,108,87,227,128,145,11,186,102,103,229,211,44,167,171,203,1,114,81,179,120,40,105,218,189,98,201,104,174,53,55,17,91,52,99,215,65,23,140,127,221,76,157,148,131,51,220,58,92,212,57,138,10,196,142,75,56,94,78,166,83,192,118,69,85,194,187,123,84,122,24,79,181,60,147,130,172,180,135,205,217,125,208,72,112,159,41,97,50,225,68,176,121,151,190,113,28,173,163,153,64,199,197,9,200,109,13,213,45,124,226,18,133,47,110,224,46,16,222,175,12,193,164,96,119
